
 102   30
  10   10   10   10   10   10   10   10   10   10   10   10   10   10   10   10   10   10   10   10   10   10   10   10   10   10   10   10   10   10

   0   0   0   0   0   0   0   0   0   0   0   0   0   0   0   0   0   0   0   0   0   0   0   0   0   0   0   0   0   0   0  27 2 3 4 5 6 7 8 9 10 11 12 13 14 15 16 17 18 19 20 21 22 25 26 28 29 30 33 
   1   0   0   0   0   1   2   0   0   0   0   0   0   0   0   0   0   0   0   2   0   1   0   0   1   0   0   0   0   0   0  19 101 98 97 83 64 61 60 55 54 51 50 47 44 43 39 38 34 32 31 
   5   0   0   0   0   0   0   0   0   0   0   0   0   0   0   0   0   0   0   0   3   0   1   3   0   0   0   1   0   1   0  12 100 99 90 61 55 54 51 48 42 31 27 24 
   8   0   0   0   1   0   0   0   0   0   0   2   1   0   0   0   0   0   0   0   0   0   0   0   0   0   0   0   0   0   0  15 98 86 64 63 61 57 56 54 51 48 38 36 35 34 31 
  10   0   0   0   0   0   3   0   1   0   0   0   0   0   0   1   1   0   0   0   4   0   0   0   0   0   0   0   0   0   0  21 98 93 87 86 84 70 64 63 62 61 60 58 57 53 51 47 44 42 38 37 36 
   3   0   0   0   0   0   0   0   0   0   0   0   0   0   0   0   0   0   0   0   0   6   0   0   0   0   0   0   0   0   1  12 99 83 61 57 55 54 44 42 41 34 31 23 
   6   0   0   0   0   7   0   0   9   0   1   0   0   0   0   6   0   0   0   0   0   0   0   0   0   0   0   0   0   0   0  15 101 98 86 64 61 60 57 54 53 48 44 42 38 34 31 
  10   0   0   0   0   0  10   0   0   0   0   0   5   0   1   0   0   0   0   0   0   5   0   0   0   0   0   0   0   0   0  15 100 97 89 87 71 69 65 64 54 53 48 47 40 38 31 
   5   0   0   0   0   0   0   0   0   0   0   0   0   1   0   0   0   0   0   4   0   0   0   0   0   0   0   0   0   0   0  13 98 70 64 63 60 58 53 44 43 42 39 36 32 
   4   0   0   0   0   0   0   0   0   0   0   0   0   0   0   0   5   0   0   0   0   0   0   0   0   2   0   7   0   0   0  19 101 92 90 89 86 85 71 70 69 63 61 58 55 51 48 46 45 43 39 
   1   0   0   0   0   0   0   0   0   0   0   0   0   0   0   0   0   1   0   9   0   0   0   0   0   0   1  10   0   0   0  14 98 92 89 69 64 63 59 57 52 51 50 43 38 36 
   5   1   0   0   0   0   6   2   0   0   0   0   0   0   0   0   0   6   1   0   0   0   0   0   0   0   0   0   0   0   0  21 99 98 94 93 92 89 87 86 85 84 70 69 67 64 63 62 61 59 58 51 36 
   2   0   1   1   0   0   0   0   0   0   0   0   0   0   0  10   0   0   0   0   3   0   0   0   0   0   5   0   0   0   5  19 98 93 91 87 86 70 69 67 63 62 61 60 58 55 53 52 48 45 42 
   1   0   0   0   8   0   0   6   6   0   0   0   0   0   0   6   0   0  10   0   0   0   0   0   0   0   0   0   0   0   0  17 92 85 70 69 68 67 64 63 62 60 59 57 55 53 50 47 36 
   8   6   0   0   0   0   0   0   0   0   0   0   0   0   0   0   0   0   0   0   0   0   0   0   0   0   3   5   0   5   0  16 101 89 83 69 63 61 59 58 57 51 50 49 44 43 41 39 
   8   0   0   0   0   0   0   0   6   0   0   7   0   0   0   7   0   0   0   0   0   0   0   9   0   0   0   0   0   0   0  15 99 98 97 91 85 70 69 63 61 58 56 53 51 39 32 
   9   9   0   0   0   6   0   0   0   0   0   0   0   0   0   0   4   0   0   0   2   0   0   0   0   8   0   7   0   0   0  19 100 98 97 96 93 91 90 88 87 86 84 71 69 68 63 59 57 51 31 
   6   0   0   7   0   7   0   0   4   0   0   0   0   0   0   0   0   0   5   0   0   0   0   0   0   0   5   0   0   0   6  18 93 92 89 86 84 83 70 69 65 64 63 61 59 53 52 48 43 41 
   5   0   6   6   0   0   0   7   0   1   0   0   0   0   0   0   5   0   0   0   0   0   0   5   0   0   0   0   0   0   0  18 97 91 89 88 87 83 70 68 67 66 63 62 59 54 53 49 44 42 
   4   0   0   7   0   0   7   0   0   0   0   4   9   0   5   0   0   0   7   5   0   0   0   0   0   0   0   8   0   0   0  17 100 96 93 92 90 89 88 87 83 69 64 59 58 51 47 45 38 
   9   4   0   0   0   0   0   0   0   0   6   0   0   0   0   6   0   0   0   0   0   0   0   0   0   0   0   0   0   0   0  14 97 88 86 83 81 70 63 61 57 54 52 51 49 34 
   9   5   0   0   4   0   0   9   7   5   0   0   0   0   4   0   0   0   0   0   0  10  10   0   0   0   0   0   1   0   0  12 99 92 91 89 70 65 58 52 50 48 43 41 
   8   0   8   0   0   0   0   0   5   0   9   0   0   0   0   0   0   7   0   0   0   0   0   0   6   0   0   0   0   0   0  16 93 92 91 86 85 71 70 69 68 65 62 60 58 53 52 48 
   1   0   0   0   0  10   0   0   0   0   0  10   0   0   0   0   6   0   0   0   0   0   0   0   0   0   0   0   0   0   0  19 98 97 96 93 92 88 87 86 83 80 71 69 67 66 65 62 57 52 47 
   1   0   0   0   0   7   0   0   0   0   0   0   0   0   7   0   0   0   0   0   0   4   5   0   0   0   0   0   0   0   0  20 100 99 96 95 92 91 90 89 87 86 82 77 73 69 68 67 66 65 59 58 
   3   0   0   0   7   0   0   0   0   0   6   0   5   0   4   0   0   0   0   0   0   0   0   0   0   0   0   0   8   0   0  17 95 93 91 89 86 85 84 83 82 73 70 69 67 66 65 62 53 
   2   0   0   0   6   7   0   0   0   0   0   0   0   0   0   0   0   0   0   0   0   0   0   7   0   0   0   7   0   0   0  12 98 97 93 89 84 70 65 64 63 59 57 43 
   9   0   6   9   5   0   8   0   0   0   0   0   5   0   0   0   0   0   3   0   0   0   0   0   0   0   0   0   5   0   0  13 98 95 94 92 91 89 86 80 76 70 62 52 44 
   6   0   0   0  10   5   0   0   0   0   0   0   3   0   0   0   5   0   0   0   5   0   0   0   0   0   0   0   0   0   0  15 99 96 95 92 90 88 84 83 82 67 66 65 64 62 58 
   2   0   0   0   9   0   0   0   0   0   0   0   0   0   0   5   0   0   0   0   0   0   0   0  10   0   0   0   0   0   0  13 97 94 93 91 88 86 85 80 78 76 67 61 52 
   6   0   0   1   0   0   0   0   0   8   5   0   0   0   0   0   0  10   0   0   0   0   0   7   0   0   5   0   0   5   6  12 95 94 92 85 80 79 72 70 67 62 58 52 
   7   0   6   0   8   0   0   0   0   0   0   0   6   0   0   0   0   0   0   0   0   0   4   5   5   0   9   0   0   0   0  13 95 94 93 89 86 80 76 75 72 67 65 62 57 
   8   0   0   6   0   0   0   0   0   0   0   0   0   0   0   6   0   0   0   0   0   6   0   0   0   0   0   3   0   6   0  13 97 96 94 93 92 90 85 84 78 69 67 65 61 
   9   0   0   0   2   6   0   0   0   0   0   3   3   0   0   0   0   0   0   0   0   0   0   0   0   0   0   0   0   0   0  14 96 92 91 90 87 84 82 79 77 73 69 68 67 66 
   6   0   0   0   0   0   0   0   0   5   0   0   0   0   0   0   0   0   0   0   0   0   0   0   0   0   0   0   6   0   0  12 100 96 94 89 82 81 78 77 69 68 65 59 
   6   0   0   0   0   0   0   0   0   0   0   0   0   0   0   0   0   0   0   0   0   0   0   3   0   0   0   0   0   0   0  15 97 96 95 91 90 88 83 82 80 78 75 73 71 66 65 
   5   0   0   0   0   0   6   0   0   0   0   6   0   0   0   5   0   0   0   0   0   0   0   0   0   0   0   0   0   0   0  14 96 91 89 83 81 80 78 77 75 74 73 72 69 65 
   9   8   0   0   0   0   0   0   0   0   0  10   0   0   0   0   0   0   0   0   0   0   0   0   0   0   0   0   0   0   0  13 99 95 94 85 81 80 79 78 77 75 73 67 66 
   3   0   0   0   0   0   0   0   0   0   0   0   0   0   3   0  10   0   0   6   0   0   0   6   0   0   6   0   0   0   0  10 96 94 88 87 80 78 72 68 67 52 
   4   0   0   0   0   5   0   0   0   0   0   0   0   0   0   0   0   0   0   0   5   0   0   0   0   0   5   0   0   0   6  10 98 95 80 78 77 76 68 67 66 57 
   4   0   0   0   0   0   5   0   0   0   0   0   0  10   0   0   0   0   0   0   8   0   0   0   0   0   8   0   0   0   9  12 97 90 87 81 80 79 78 77 76 74 68 66 
   7   0   0   0   0   0   0   0   5  10   0   0   0   0   0   0   0   0   0   0   0   0   0   0   0   0   0   3   0   0   0  12 96 95 94 92 85 82 81 79 77 75 74 73 
   7   0   0   0   0   9   6   0   0   0   0  10   0   0   0   0   0   0   0   0   0   0   0   0   0   0   0   0   0   0   0   7 82 80 76 68 67 66 62 
   1   0   0   0   0   7   0   0   0   0   0   0   0   0   0   0   0   0   0   0   0   6   0   0   0   0   0   0   0   0   0   9 96 82 81 78 77 75 73 71 65 
   7   0   0   0   9   0   0   0   0   0   0   0   0   0   0   0   0   0   5   0   0   0   0   0   8   0   0   0   0   0   6   6 84 81 77 66 65 57 
   2   0   0   0   0   0   0   0   0   0   0   5   0   3   0   0   0   0   0   6   0   0   0   0   0   0   9   0   0   0   0   9 93 91 80 79 78 77 76 73 68 
   9   4   0   0   2   0   0   7   0   6   0   0   0   0   0   0   7   0   0   7  10   0   0   0   0   0   0   0   0   0   0   8 95 94 91 81 79 76 74 73 
   1   0   0   0   0   0   0   0   2   0   0   5   0   0   0   0   7   0   0   0   0   0   0   0   0   0   7   0   0   0   0   7 96 95 88 78 75 73 66 
  10   0   0   0   0   0   0   0   0   0   0   0   0   0   0   0   0   0   0   0   0   0   0   0   0   0   0   0   0   0   7   6 80 77 76 74 73 71 
   5  10   0   0   0   0   0   0   0   0   0   0   0   0   0   0   0   0   0   0   0   0   0   0   0   0   0   0   0   0   0   6 94 93 87 86 76 73 
   4   6   0   0   0   0   0   0   0   4   0   0   0   0   0   0   0   6   0   0   0   7   0   0   0   5   0   0   0   0   0   4 95 74 66 65 
   1   0   0   0   0   0   0   4   6   0   0   0   0   0   0   0   5   6   0   0   0   0   0   0   0  10   0   0   0   0   0   5 82 77 75 74 73 
   3   0   0   0   0   0   0   0   0   0   0   0   0   0   0   7   0   0   0   0   0   0   6   0   0   0   0   0   0   0   0   5 94 90 81 80 72 
   3   0   0   9   0   0   1   0   0   0   0   0   0   0   0   0   0   0   0   0   0   9   9   5   3   0   0   0   5   0   0   5 94 93 84 75 72 
   7   0   0   0   0   0   0   0   0   0   0   0   0  10  10   0   0   0   0   0   0   0   0   0   0   0   0   0   0   0   0   5 80 78 76 75 72 
  10   0   0   0   0   0   0   0   0   9   0   0   0   0   0   0   0   3  10   0   0   0   0   0   0   0   0   0   0   0   0   5 92 81 77 76 73 
  10   0   0   4   0   8   0   0   6   0   0   0   0   0   8   0   0   0   7   0   0   8   0   0   0   0   0   0   0   0   0   3 82 74 73 
  10   6   0   0   0   0   0   0   0   0   0   0   0   0   0   0   0   0   0   0   0   7   0   0   0   0   0   0   0   0   0   3 81 78 76 
   3   0   0   7   0   8   0   0   0   0   0   0   0   6   0   0   0   0   0   0   0   0   0   0   0   7   0   0   0   0   0   3 80 74 72 
   1   0   0   0   0   0   7   0   0   8   0   0   9   0   0   0   0   0   0   0   0   0   0   6   0   0   0   0   0   0   7   3 89 73 72 
   7   0   0   0   0   0   0   0   7   0   0   0   0   0   0   0   0   0   0   0   0   0   0   0   0   0   0   0   0   0   7   2 72 68 
   1   0   0   0   0   0   5  10   0   0   0   0   0   7   8   0   0   0   0   0   0   0   0   6   0   0   0   0   0   0   0   2 81 78 
   1   0   0   0   0   0   0   0   0   0   0   0   0   0   0   0   0   0   0   0   0   0   0   0   0   0   0   0   0   0   0   2 76 72 
   7   0   0   0   0   0   0   0   6   0   0   0   0   0   0   0   0   0   4   0   0   0   0   0   0   0   0   0   5   0   0   2 77 73 
   5   0   0   0   0   0   0   0   0   0   0   6   0   5   0   0   0   0   0   0   0   0   0   0   8   0   0   0   0   0   6   1 79 
   2   0   0   0   0   0   0   0   0   0   0   0   0   0   0   0   0   0   0   0   0   0   0   8   0  10   0   0   0   0   0   1 72 
   8   0   0   0   0   0   0   0   0   0   0   0   0   0   0   0   0   0   0   0   0   7   3   0   0   6   0   0   0   0   0   1 74 
   8   5   0   0   0   0   0   0   0   0   0   0   0   0   0   7   0   0   0   7   0   0   0   6   0   0   0   0   0   0   0   1 75 
   7   0   0   0   0   0   0   0   0   0   0   0   0   0   0   0   0   0   0   0   0   0   0   0   0   0   0   4   0   0   0   1 76 
   2   0   0   0   0   4   2   0   0   0   0   5   0   0   0   0   0   0   0   5  10   0   0   0   0   0   0   0   8   7   0   1 77 
   8   0   0   0   0   5   0   0   0   0   0   0   0   0   0   0   0   0   6   0   0   0   0   0   0   0   0   8   0   0   0   1 72 
   4   0   0   0   0   0   6   0   0   0   0   0   0   0   0   0   0   0   8   0   0   0   0   0   8   0   0   0   0   0   0   1 102
   5   0   0   0   0   0   0   0   0   0  10   0   0   0   0   0   0   0   0   0   0   0   0   0   0   0   0   0   0   0   0   1 102
   8   0   0   0   0   3   8   0   0   0   0   0   0   7   0   0   0   0   0   0   0   0   0   0   0   5   0   0   0   0   5   1 102
   3   0   0   0   0   0   0   0   0   0   0   0  10   0   0   0   0   0   0   0   0   0   0   0   0   0   0  10   0  10   0   1 102
   6   5   6   0   0   0   0   0   0   0   0   0   0   0   0   0   0   0   0   0   0   0   0   0   0   0   0   0   9  10   0   1 102
   4   0   0   0   0   0   7   0   6   0   0   0   0   0   0   0   0   8   0   2   0   0   0   0   0   3   0   0   0   0   7   1 102
   1   0   0   0   0   0   0   0   0   0   0   5   0   0   0   0   0   0   0   0   9   0   0   0   0   0   0   0   6   0   3   1 102
   4   5   8   0   0   0   8   0   0   0   0   6   0   0   9   0   0   0   0   0   0   0   0   0   0   8   7   0   0   0   0   1 102
  10   0   7   0   6   0   0   0   0   0   0   0   0   0   0   0   0   0   0   0   0   0   0   0   0   0   0   0   0   0   0   1 102
   1   0   0   0   0   0  10   6   0   0   0   0   0   0   0   0   5   0   0   0   0   0   0   0   0   0   0   0   7   0   0   1 102
   3   0   0   0   0   0   7   0   0   0   0   0   0   0   0   0   0   0   0   0   0   0   0   0   4   0   0   0   0   0   0   1 102
   7   0   0   8   0   0   0   0  10   0   0   0   0   0   0   0   0   0   0   0   0   0   0   0   0   0   0   0   0   7   0   1 102
   2   8   0   0   0   0   0   0   5   0   0   0   0   0   0   0   0   0   0   0   0   0   0   0   0   0   7   0   0   0   0   1 102
   8   6   0   0   0   0   0   0   8   0   0   6   0   0   0   0   0   0   0   0   0   0   0   4   0   0   0   5   0   0   0   1 102
   5   0   0   0   7   0   0   5   0   4   0   0   0   0   0   0   0   0   0   9   7   0   0   0   0   0   0   0   0   0   0   1 102
   1   8   0   0   0   0   0   3   0   0   0   0   8   0   6   0   0   0   7   0   0   0   0   0   7   4   0   0   0   0   0   1 102
   2   0   0   0   0   0   0   0   0   0   0   6   0   0   0   0   0   0   0   0   0   0   0   0   0   0   0   0   0   0   0   1 102
   9   0   0   0   0   4   0   0   0   0   0   0   0   5   0   0   5   0   0   0   0   0   0   0   0   0   0   0   0   0   0   1 102
   5   0   0   0   0   6   0   0   0   0   0   6   6   0   6   6   9   0   0   0   3   0   0   0   0   0   0   0   0   3   0   1 102
   5   0   0   7   0   0   0   7   0   0   0   0   0   0   0   0   0   0   0   0   0   3   6   0   0   0   0   0   0   0   0   1 102
   8   0   0   0   0   0   0   0   0   0   0   0   0   0   0   0   0   0   0   0   0   0   0   0   0   4   0   0   0   0   0   1 102
   8   0   0   0   0   5   0   0   0   0   0   0   0   0   0   0   0   0   0   0   0   0   0   0   0   0   0   0   0   0   0   1 102
   3   0   0   0   0   0   0   0   0   0   0   0   0   0   0   0   0   0   0   5   0   0   0   0   0   0   0   0   0   8   0   1 102
   7   0   0   0   0   0   0   0   0   0   0   0   8   6   0   0   0   7   0  10   0   0   7   0   0   0   0   0   0   0   0   1 102
   6   6   0   0   0   0   0   0   0   0   0   0   0   0   0   0   0   0   0   7   0   0   0   0   0   0   7   0   0   0   0   1 102
   6   0   0   0   0   0   0   0   9   0   0   0   0   0   0   0   0   0   0   0   9   0   0   0   0   0   0   0   0   0   0   1 102
  10   0   0   0   0   0   0   0   0   6   0   0   0   0   0   0   0   0   0   0   0   5   0   0   0   0   0   0   0   4   0   1 102
   3   0   0   0   0   0   0   0   0   0   5   0   0   0   0   0   0   0   5   0   0   0   0   0   0   0   0   0   0   0   0   1 102
   1   0   0   0   0   0   0   0   0   0   0   0   0   0   0   0   0   0   0   0   0   0   9  10   0   0   0   0   0   0   9   1 102
   7   0   0   0   0   0   0   0   0   0   0   0   0   0   7   0  10   0   6   0   0   0   0   0   0   0   0   0   0   0   0   1 102
   0   0   0   0   0   0   0   0   0   0   0   0   0   0   0   0   0   0   0   0   0   0   0   0   0   0   0   0   0   0   0   0 
